3	43	1	8	29	100	0	0	0	0	0	0
800	1	0	0	0	0	0	0	0	0	0	0
800	1	0	0	0	0	0	0	0	0	0	0
800	1	0	0	0	0	0	0	0	0	0	0
100	1	0	79.69	3.39	1	0	0	0	0	0	0
100	1	0	79.69	3.39	1	0	0	0	0	0	0
100	1	0	79.69	3.39	1	0	0	0	0	0	0
100	1	0	79.69	3.39	1	0	0	0	0	0	0
100	1	0	79.69	3.39	1	0	0	0	0	0	0
100	1	0	79.69	3.39	1	0	0	0	0	0	0
100	1	0	79.69	3.39	1	0	0	0	0	0	0
100	1	0	79.69	3.39	1	0	0	0	0	0	0
100	1	0	79.69	3.39	1	0	0	0	0	0	0
100	1	0	79.69	3.39	1	0	0	0	0	0	0
100	1	0	79.69	3.39	1	0	0	0	0	0	0
100	1	0	79.69	3.39	1	0	0	0	0	0	0
100	1	0	79.69	3.39	1	0	0	0	0	0	0
100	1	0	79.69	3.39	1	0	0	0	0	0	0
100	1	0	79.69	3.39	1	0	0	0	0	0	0
100	1	0	79.69	3.39	1	0	0	0	0	0	0
100	1	0	79.69	3.39	1	0	0	0	0	0	0
100	1	0	79.69	3.39	1	0	0	0	0	0	0
100	1	0	79.69	3.39	1	0	0	0	0	0	0
100	1	0	79.69	3.39	1	0	0	0	0	0	0
100	1	0	79.69	3.39	1	0	0	0	0	0	0
100	1	0	79.69	3.39	1	0	0	0	0	0	0
100	1	0	79.69	3.39	1	0	0	0	0	0	0
100	1	0	79.69	3.39	1	0	0	0	0	0	0
100	1	0	79.69	3.39	1	0	0	0	0	0	0
100	1	0	79.69	3.39	1	0	0	0	0	0	0
100	1	0	79.69	3.39	1	0	0	0	0	0	0
100	1	0	79.69	3.39	1	0	0	0	0	0	0
100	1	0	79.69	3.39	1	0	0	0	0	0	0
100	1	0	79.69	3.39	1	0	0	0	0	0	0
100	1	0	79.69	3.39	1	0	0	0	0	0	0
100	1	0	79.69	3.39	1	0	0	0	0	0	0
100	1	0	79.69	3.39	1	0	0	0	0	0	0
100	1	0	79.69	3.39	1	0	0	0	0	0	0
100	1	0	79.69	3.39	1	0	0	0	0	0	0
100	1	0	79.69	3.39	1	0	0	0	0	0	0
100	1	0	79.69	3.39	1	0	0	0	0	0	0
100	1	0	79.69	3.39	1	0	0	0	0	0	0
100	1	0	79.69	3.39	1	0	0	0	0	0	0
100	1	0	79.69	3.39	1	0	0	0	0	0	0
100	1	0	79.69	3.39	1	0	0	0	0	0	0
100	1	0	79.69	3.39	1	0	0	0	0	0	0
100	1	0	79.69	3.39	1	0	0	0	0	0	0
50	150	0	0	0	0	1236	0	0	99999	0	0
25	25	0	0	0	0	1236	0	0	99999	0	0
50	25	0	0	0	0	1236	0	0	99999	0	0
75	25	0	0	0	0	1236	0	0	99999	0	0
25	50	0	0	0	0	1236	0	0	99999	0	0
75	50	0	0	0	0	1236	0	0	99999	0	0
25	75	0	0	0	0	1236	0	0	99999	0	0
50	75	0	0	0	0	1236	0	0	99999	0	0
75	75	0	0	0	0	1236	0	0	99999	0	0
25	25	0	0	0	0	1236	0	0	0	0	0
50	25	0	0	0	0	1236	0	0	0	0	0
75	25	0	0	0	0	1236	0	0	0	0	0
25	50	0	0	0	0	1236	0	0	0	0	0
75	50	0	0	0	0	1236	0	0	0	0	0
25	75	0	0	0	0	1236	0	0	0	0	0
50	75	0	0	0	0	1236	0	0	0	0	0
75	75	0	0	0	0	1236	0	0	0	0	0
40      50      0       0       0       0       1236    0       0       0       0       0
73      52      0       0       0       0       1236    0       0       0       0       0
90      55      0       0       0       0       1236    0       0       0       0       0
55      79      0       0       0       0       1236    0       0       0       0       0
69      89      0       0       0       0       1236    0       0       0       0       0
32      80      0       0       0       0       1236    0       0       0       0       0
39      96      0       0       0       0       1236    0       0       0       0       0
23      80      0       0       0       0       1236    0       0       0       0       0
4	83	0	0	0	0	1236	0	0	0	0	0
18	58	0	0	0	0	1236	0	0	0	0	0
1	56	0	0	0	0	1236	0	0	0	0	0
13	31	0	0	0	0	1236	0	0	0	0	0
-5	38	0	0	0	0	1236	0	0	0	0	0
26	37	0	0	0	0	1236	0	0	0	0	0
28	13	0	0	0	0	1236	0	0	0	0	0
39	31	0	0	0	0	1236	0	0	0	0	0
48	11	0	0	0	0	1236	0	0	0	0	0
59	17	0	0	0	0	1236	0	0	0	0	0
73	23	0	0	0	0	1236	0	0	0	0	0
74	32	0	0	0	0	1236	0	0	0	0	0
90	44	0	0	0	0	1236	0	0	0	0	0
45	68	10	7	3	147	273	90	0	0	0	0
45	70	30	19	11	572	682	90	0	0	0	0
42	66	10	6	4	930	1066	90	0	0	0	0
42	68	10	6	4	649	793	90	0	0	0	0
42	65	10	6	4	1013	1165	90	0	0	0	0
40	69	20	12	8	754	872	90	0	0	0	0
40	66	20	12	8	844	968	90	0	0	0	0
38	68	20	11	9	1092	1228	90	0	0	0	0
38	70	10	5	5	1018	1182	90	0	0	0	0
35	66	10	5	5	847	979	90	0	0	0	0
35	69	10	5	5	935	1077	90	0	0	0	0
25	85	20	6	14	250	356	90	0	0	0	0
22	75	30	9	21	1087	1216	90	0	0	0	0
22	85	10	3	7	332	460	90	0	0	0	0
20	80	40	10	30	823	913	90	0	0	0	0
20	85	40	9	31	430	546	90	0	0	0	0
18	75	20	5	15	695	851	90	0	0	0	0
15	75	20	4	16	635	725	90	0	0	0	0
15	80	10	2	8	527	643	90	0	0	0	0
30	50	10	6	4	111	231	90	0	0	0	0
30	52	20	12	8	112	236	90	0	0	0	0
28	52	20	11	9	144	262	90	0	0	0	0
28	55	10	5	5	114	228	90	0	0	0	0
25	50	10	5	5	139	273	90	0	0	0	0
25	52	40	19	21	222	370	90	0	0	0	0
25	55	10	5	5	738	880	90	0	0	0	0
23	52	10	4	6	341	435	90	0	0	0	0
23	55	20	8	12	503	647	90	0	0	0	0
20	50	10	4	6	249	353	90	0	0	0	0
20	55	10	4	6	429	535	90	0	0	0	0
10	35	20	6	14	542	644	90	0	0	0	0
10	40	30	8	22	338	472	90	0	0	0	0
8	40	40	8	32	415	579	90	0	0	0	0
8	45	20	4	16	271	369	90	0	0	0	0
5	35	10	1	9	721	861	90	0	0	0	0
5	45	10	1	9	345	481	90	0	0	0	0
2	40	20	1	19	645	745	90	0	0	0	0
0	40	30	0	30	542	664	90	0	0	0	0
0	45	20	0	20	443	573	90	0	0	0	0
35	30	10	9	1	215	329	90	0	0	0	0
35	32	10	9	1	120	240	90	0	0	0	0
33	32	20	19	1	314	416	90	0	0	0	0
33	35	10	9	1	860	980	90	0	0	0	0
32	30	10	9	1	395	519	90	0	0	0	0
30	30	10	10	0	495	603	90	0	0	0	0
30	32	30	28	2	670	798	90	0	0	0	0
30	35	10	9	1	771	883	90	0	0	0	0
28	30	10	9	1	584	698	90	0	0	0	0
28	35	10	8	2	1081	1205	90	0	0	0	0
26	32	10	8	2	998	1102	90	0	0	0	0
25	30	10	8	2	891	1023	90	0	0	0	0
25	35	10	7	3	1104	1225	90	0	0	0	0
44	5	20	2	18	500	650	90	0	0	0	0
42	10	40	10	30	883	997	90	0	0	0	0
42	15	10	4	6	977	1093	90	0	0	0	0
40	5	30	4	26	421	541	90	0	0	0	0
40	15	40	15	25	1053	1201	90	0	0	0	0
38	5	30	4	26	325	453	90	0	0	0	0
38	15	10	4	6	138	254	90	0	0	0	0
35	5	20	3	17	239	353	90	0	0	0	0
50	30	10	6	4	1038	1208	90	0	0	0	0
50	35	20	14	6	240	360	90	0	0	0	0
50	40	50	40	10	116	256	90	0	0	0	0
48	30	10	6	4	333	457	90	0	0	0	0
48	40	10	8	2	132	276	90	0	0	0	0
47	35	10	7	3	1107	1230	90	0	0	0	0
47	40	10	9	1	114	263	90	0	0	0	0
45	30	10	7	3	422	554	90	0	0	0	0
45	35	10	8	2	514	652	90	0	0	0	0
95	30	30	9	21	464	572	90	0	0	0	0
95	35	20	7	13	551	675	90	0	0	0	0
53	30	10	6	4	980	1080	90	0	0	0	0
92	30	10	3	7	351	499	90	0	0	0	0
53	35	50	33	17	147	275	90	0	0	0	0
45	65	20	14	6	117	268	90	0	0	0	0
90	35	10	4	6	644	772	90	0	0	0	0
88	30	10	3	7	602	734	90	0	0	0	0
88	35	20	8	12	735	865	90	0	0	0	0
87	30	10	3	7	516	638	90	0	0	0	0
85	25	10	3	7	711	817	90	0	0	0	0
85	35	30	12	18	831	955	90	0	0	0	0
75	55	20	15	5	525	665	90	0	0	0	0
72	55	10	8	2	626	750	90	0	0	0	0
70	58	20	17	3	721	841	90	0	0	0	0
68	60	30	26	4	801	947	90	0	0	0	0
66	55	10	8	2	240	376	90	0	0	0	0
65	55	20	17	3	158	276	90	0	0	0	0
65	60	30	28	2	908	1026	90	0	0	0	0
63	58	10	9	1	1000	1120	90	0	0	0	0
60	55	10	9	1	122	249	90	0	0	0	0
60	60	10	10	0	1053	1224	90	0	0	0	0
67	85	20	16	4	529	651	90	0	0	0	0
65	85	40	31	9	611	753	90	0	0	0	0
65	82	10	8	2	441	551	90	0	0	0	0
62	80	30	23	7	348	458	90	0	0	0	0
60	80	10	8	2	244	378	90	0	0	0	0
60	85	30	21	9	715	839	90	0	0	0	0
58	75	20	15	5	248	382	90	0	0	0	0
55	80	10	7	3	906	1028	90	0	0	0	0
55	85	20	13	7	818	926	90	0	0	0	0
